30
1 0 26
2 0 51
2 1 134
3 0 137
3 1 153
3 2 102
4 0 146
4 1 53
4 2 115
4 3 49
5 0 73
5 1 74
5 2 42
5 3 21
5 4 99
6 0 85
6 1 83
6 2 17
6 3 149
6 4 74
6 5 13
7 0 80
7 1 69
7 2 37
7 3 57
7 4 142
7 5 52
7 6 25
8 0 152
8 1 126
8 2 26
8 3 57
8 4 123
8 5 127
8 6 135
8 7 148
9 0 121
9 1 91
9 2 150
9 3 120
9 4 78
9 5 155
9 6 13
9 7 155
9 8 150
10 0 25
10 1 86
10 2 71
10 3 12
10 4 94
10 5 16
10 6 129
10 7 39
10 8 15
10 9 145
11 0 147
11 1 55
11 2 80
11 3 151
11 4 138
11 5 65
11 6 82
11 7 36
11 8 117
11 9 156
11 10 134
12 0 153
12 1 133
12 2 58
12 3 113
12 4 22
12 5 22
12 6 142
12 7 41
12 8 77
12 9 16
12 10 64
12 11 92
13 0 87
13 1 9
13 2 141
13 3 28
13 4 68
13 5 151
13 6 138
13 7 54
13 8 87
13 9 6
13 10 153
13 11 92
13 12 30
14 0 139
14 1 123
14 2 8
14 3 158
14 4 98
14 5 147
14 6 140
14 7 71
14 8 93
14 9 1
14 10 70
14 11 22
14 12 92
14 13 114
15 0 54
15 1 50
15 2 36
15 3 67
15 4 79
15 5 148
15 6 111
15 7 155
15 8 82
15 9 56
15 10 33
15 11 75
15 12 67
15 13 55
15 14 58
16 0 51
16 1 42
16 2 152
16 3 40
16 4 130
16 5 53
16 6 72
16 7 105
16 8 153
16 9 131
16 10 92
16 11 16
16 12 70
16 13 50
16 14 77
16 15 50
17 0 140
17 1 63
17 2 58
17 3 70
17 4 113
17 5 33
17 6 91
17 7 25
17 8 67
17 9 133
17 10 98
17 11 64
17 12 156
17 13 121
17 14 91
17 15 69
17 16 88
18 0 135
18 1 94
18 2 60
18 3 19
18 4 85
18 5 88
18 6 94
18 7 50
18 8 40
18 9 37
18 10 61
18 11 101
18 12 25
18 13 51
18 14 153
18 15 12
18 16 130
18 17 36
19 0 106
19 1 97
19 2 52
19 3 98
19 4 138
19 5 5
19 6 14
19 7 146
19 8 158
19 9 51
19 10 24
19 11 65
19 12 110
19 13 59
19 14 135
19 15 93
19 16 8
19 17 114
19 18 41
20 0 128
20 1 52
20 2 120
20 3 86
20 4 95
20 5 101
20 6 67
20 7 43
20 8 4
20 9 94
20 10 76
20 11 52
20 12 150
20 13 138
20 14 118
20 15 156
20 16 18
20 17 3
20 18 150
20 19 19
21 0 93
21 1 36
21 2 22
21 3 147
21 4 98
21 5 103
21 6 122
21 7 38
21 8 31
21 9 106
21 10 114
21 11 108
21 12 151
21 13 23
21 14 33
21 15 6
21 16 126
21 17 72
21 18 23
21 19 86
21 20 144
22 0 153
22 1 51
22 2 27
22 3 105
22 4 25
22 5 104
22 6 146
22 7 110
22 8 125
22 9 49
22 10 131
22 11 32
22 12 53
22 13 66
22 14 11
22 15 27
22 16 10
22 17 104
22 18 90
22 19 22
22 20 57
22 21 3
23 0 109
23 1 103
23 2 137
23 3 76
23 4 33
23 5 88
23 6 156
23 7 55
23 8 101
23 9 126
23 10 95
23 11 97
23 12 38
23 13 47
23 14 159
23 15 78
23 16 113
23 17 28
23 18 61
23 19 153
23 20 43
23 21 49
23 22 103
24 0 20
24 1 75
24 2 153
24 3 12
24 4 87
24 5 17
24 6 33
24 7 27
24 8 147
24 9 7
24 10 15
24 11 147
24 12 133
24 13 127
24 14 137
24 15 4
24 16 58
24 17 22
24 18 121
24 19 4
24 20 123
24 21 38
24 22 32
24 23 47
25 0 100
25 1 141
25 2 48
25 3 50
25 4 8
25 5 145
25 6 160
25 7 123
25 8 147
25 9 154
25 10 63
25 11 55
25 12 30
25 13 8
25 14 152
25 15 34
25 16 129
25 17 95
25 18 112
25 19 103
25 20 117
25 21 155
25 22 99
25 23 45
25 24 7
26 0 115
26 1 119
26 2 140
26 3 45
26 4 138
26 5 127
26 6 102
26 7 56
26 8 13
26 9 52
26 10 77
26 11 116
26 12 110
26 13 104
26 14 119
26 15 119
26 16 91
26 17 16
26 18 41
26 19 36
26 20 99
26 21 52
26 22 129
26 23 125
26 24 53
26 25 118
27 0 51
27 1 67
27 2 81
27 3 49
27 4 67
27 5 60
27 6 43
27 7 34
27 8 6
27 9 58
27 10 147
27 11 36
27 12 61
27 13 82
27 14 37
27 15 110
27 16 56
27 17 122
27 18 37
27 19 81
27 20 28
27 21 85
27 22 96
27 23 88
27 24 4
27 25 137
27 26 40
28 0 56
28 1 102
28 2 54
28 3 101
28 4 160
28 5 61
28 6 97
28 7 145
28 8 98
28 9 45
28 10 23
28 11 12
28 12 130
28 13 138
28 14 98
28 15 81
28 16 7
28 17 134
28 18 26
28 19 107
28 20 112
28 21 16
28 22 37
28 23 155
28 24 60
28 25 69
28 26 135
28 27 137
29 0 117
29 1 142
29 2 77
29 3 118
29 4 122
29 5 149
29 6 2
29 7 56
29 8 72
29 9 88
29 10 24
29 11 95
29 12 21
29 13 5
29 14 94
29 15 156
29 16 7
29 17 41
29 18 106
29 19 25
29 20 136
29 21 70
29 22 37
29 23 54
29 24 25
29 25 129
29 26 27
29 27 55
29 28 45
